h 9 0
h -1 0
h -3 0
h -8 -10 0
h 4 0
h 7 0
h -1 10 0
h 2 0
h 26 0
h -10 8 0
h 1 10 0
h -19 0
h 24 0
h -5 0
h 21 0
h -27 0
h -46 0
h 59 0
h 6 0
h 37 0
h -45 0
h -9 -38 0
h 18 0
h 60 0
h -146 0
h -134 0
h 126 0
h 162 0
h 130 0
h -139 0
h -147 0
h -138 0
h 135 0
h -108 0
h -158 0
h 75 0
4361452460657203333 -189 0
h 119 0
h 22 0
h 154 0
6306786378144991323 -190 0
h 125 0
6780379032546578870 -191 0
h 14 0
h 192 163 38 13 0
h -13 38 0
998126202360778089 -192 0
